(set-logic QF_S)
(declare-fun var0 () String)
(declare-fun var1 () String)
(declare-fun var2 () Int)
(declare-fun var3 () String)
(declare-fun var4 () String)
(declare-fun var5 () Int)
(declare-fun var6 () Int)
(declare-fun var7 () Int)
(assert (> (str.indexof var0 var1 var2) (str.len var3)))
(assert (< (str.indexof var4 var1 var5) (str.indexof var0 var1 var6)))
(assert (<= var7 var7))
(assert (str.contains var4 var4))
(check-sat)